
Log started (V20.1.0.0) Fri Apr 29 10:25:52 2022


Problem 'file.lp' read.
Read time = 0.02 sec. (0.00 ticks)
Version identifier: 20.1.0.0 | 2020-11-10 | 9bedb6d68
Tried aggregator 1 time.
LP Presolve eliminated 2 rows and 12 columns.
All rows and columns eliminated.
Presolve time = 0.00 sec. (0.00 ticks)

Dual simplex - Optimal:  Objective =  0.0000000000e+00
Solution time =    0.02 sec.  Iterations = 0 (0)
Deterministic time = 0.00 ticks  (0.23 ticks/sec)


All variables matching '*' are 0.

Log started (V20.1.0.0) Fri Apr 29 10:27:01 2022


Problem 'file.lp' read.
Read time = 0.00 sec. (0.00 ticks)
Version identifier: 20.1.0.0 | 2020-11-10 | 9bedb6d68
Tried aggregator 1 time.
LP Presolve eliminated 2 rows and 8 columns.
All rows and columns eliminated.
Presolve time = 0.00 sec. (0.00 ticks)

Dual simplex - Optimal:  Objective =  1.4500000000e+05
Solution time =    0.00 sec.  Iterations = 0 (0)
Deterministic time = 0.00 ticks  (3.50 ticks/sec)


Log started (V20.1.0.0) Fri Apr 29 10:30:38 2022


Problem 'file.lp' read.
Read time = 0.00 sec. (0.00 ticks)
Version identifier: 20.1.0.0 | 2020-11-10 | 9bedb6d68
Tried aggregator 1 time.
LP Presolve eliminated 2 rows and 9 columns.
All rows and columns eliminated.
Presolve time = 0.00 sec. (0.00 ticks)

Dual simplex - Optimal:  Objective =  1.4500100000e+05
Solution time =    0.00 sec.  Iterations = 0 (0)
Deterministic time = 0.00 ticks  (3.78 ticks/sec)


Variable Name           Solution Value
produtosFabric@3          80000.000000
produtosFabric@7          65000.000000
__ObjOffset@c                 1.000000
All other variables matching '*' are 0.

Log started (V20.1.0.0) Fri Apr 29 10:54:18 2022


Problem 'file.lp' read.
Read time = 0.00 sec. (0.00 ticks)
Version identifier: 20.1.0.0 | 2020-11-10 | 9bedb6d68
Tried aggregator 1 time.
LP Presolve eliminated 3 rows and 8 columns.
All rows and columns eliminated.
Presolve time = 0.00 sec. (0.00 ticks)

Dual simplex - Optimal:  Objective =  8.0000000000e+05
Solution time =    0.00 sec.  Iterations = 0 (0)
Deterministic time = 0.00 ticks  (4.16 ticks/sec)


Variable Name           Solution Value
produtosFabric@7          40000.000000
All other variables matching '*' are 0.

Log started (V20.1.0.0) Fri Apr 29 10:58:06 2022


Log started (V20.1.0.0) Fri Apr 29 23:25:59 2022


Problem 'file.lp' read.
Read time = 0.02 sec. (0.00 ticks)
Version identifier: 20.1.0.0 | 2020-11-10 | 9bedb6d68
Tried aggregator 1 time.
LP Presolve eliminated 3 rows and 8 columns.
All rows and columns eliminated.
Presolve time = 0.00 sec. (0.00 ticks)

Dual simplex - Optimal:  Objective =  8.0000000000e+05
Solution time =    0.00 sec.  Iterations = 0 (0)
Deterministic time = 0.00 ticks  (4.16 ticks/sec)


Variable Name           Solution Value
produtosFabric@7          40000.000000
All other variables matching '*' are 0.

Log started (V20.1.0.0) Fri Apr 29 23:28:39 2022


Problem 'file.lp' read.
Read time = 0.00 sec. (0.00 ticks)
Version identifier: 20.1.0.0 | 2020-11-10 | 9bedb6d68
Tried aggregator 1 time.
LP Presolve eliminated 3 rows and 8 columns.
All rows and columns eliminated.
Presolve time = 0.00 sec. (0.00 ticks)

Dual simplex - Optimal:  Objective =  8.0000000000e+05
Solution time =    0.00 sec.  Iterations = 0 (0)
Deterministic time = 0.00 ticks  (4.16 ticks/sec)


Variable Name           Solution Value
produtosFabric@7          40000.000000
All other variables matching '*' are 0.

Log started (V20.1.0.0) Fri Apr 29 23:29:48 2022


Problem 'file.lp' read.
Read time = 0.00 sec. (0.00 ticks)
Version identifier: 20.1.0.0 | 2020-11-10 | 9bedb6d68
Tried aggregator 1 time.
LP Presolve eliminated 3 rows and 8 columns.
All rows and columns eliminated.
Presolve time = 0.00 sec. (0.00 ticks)

Dual simplex - Optimal:  Objective =  8.0000000000e+05
Solution time =    0.00 sec.  Iterations = 0 (0)
Deterministic time = 0.00 ticks  (4.16 ticks/sec)


Variable Name           Solution Value
produtosFabric@7          40000.000000
All other variables matching '*' are 0.
